NAME: random-99-5163
TYPE: TSP
COMMENT: size=99 seed=5163
DIMENSION: 200
EDGE_WEIGHT_TYPE: EUC_2D
NODE_COORD_SECTION
+0 541 274
-0 541 274
+1 340 226
-1 98 26
+2 420 792
-2 660 288
+3 566 680
-3 309 91
+4 446 594
-4 507 541
+5 104 932
-5 687 50
+6 184 239
-6 459 42
+7 899 465
-7 558 693
+8 771 6
-8 430 161
+9 475 752
-9 325 581
+10 696 952
-10 102 585
+11 194 810
-11 297 984
+12 646 500
-12 984 437
+13 535 779
-13 346 97
+14 595 750
-14 372 325
+15 196 770
-15 232 303
+16 745 189
-16 273 708
+17 393 219
-17 79 902
+18 295 573
-18 450 823
+19 143 442
-19 918 575
+20 467 713
-20 120 225
+21 417 35
-21 868 837
+22 993 785
-22 303 142
+23 951 216
-23 579 809
+24 539 363
-24 64 304
+25 885 706
-25 119 724
+26 260 57
-26 977 721
+27 849 621
-27 263 292
+28 74 619
-28 283 65
+29 18 631
-29 354 725
+30 937 992
-30 117 18
+31 99 176
-31 645 404
+32 327 373
-32 933 693
+33 294 377
-33 844 176
+34 25 689
-34 316 708
+35 408 449
-35 757 983
+36 236 600
-36 716 25
+37 858 244
-37 871 560
+38 935 940
-38 746 893
+39 969 666
-39 292 76
+40 536 505
-40 49 807
+41 332 537
-41 166 321
+42 181 696
-42 819 138
+43 844 755
-43 770 928
+44 668 958
-44 728 911
+45 567 626
-45 464 787
+46 753 938
-46 172 531
+47 272 192
-47 321 820
+48 752 158
-48 281 300
+49 429 691
-49 281 497
+50 393 710
-50 222 779
+51 231 874
-51 755 947
+52 549 72
-52 20 486
+53 138 981
-53 170 375
+54 6 842
-54 680 469
+55 227 114
-55 561 96
+56 120 529
-56 253 866
+57 218 459
-57 46 315
+58 546 846
-58 790 731
+59 877 51
-59 849 268
+60 343 475
-60 154 370
+61 374 302
-61 962 533
+62 602 199
-62 631 406
+63 880 26
-63 504 455
+64 708 242
-64 380 536
+65 277 459
-65 731 306
+66 659 599
-66 514 386
+67 685 306
-67 19 451
+68 836 45
-68 201 809
+69 154 343
-69 543 418
+70 441 630
-70 772 739
+71 932 999
-71 436 10
+72 973 226
-72 495 369
+73 439 160
-73 579 913
+74 595 267
-74 44 47
+75 321 623
-75 658 968
+76 923 436
-76 26 140
+77 997 292
-77 26 427
+78 18 243
-78 820 395
+79 705 295
-79 379 755
+80 391 653
-80 374 76
+81 754 190
-81 391 819
+82 975 916
-82 615 882
+83 188 923
-83 675 306
+84 75 92
-84 669 144
+85 444 313
-85 174 631
+86 954 375
-86 434 400
+87 685 772
-87 929 724
+88 781 158
-88 531 62
+89 218 930
-89 815 192
+90 962 807
-90 966 416
+91 404 135
-91 489 671
+92 754 410
-92 898 398
+93 878 997
-93 891 914
+94 40 252
-94 783 509
+95 606 912
-95 590 836
+96 549 66
-96 567 525
+97 573 799
-97 705 869
+98 798 484
-98 557 870
+99 925 501
-99 852 804
PRECEDENCE_SECTION
+0 -0
+1 -1
+2 -2
+3 -3
+4 -4
+5 -5
+6 -6
+7 -7
+8 -8
+9 -9
+10 -10
+11 -11
+12 -12
+13 -13
+14 -14
+15 -15
+16 -16
+17 -17
+18 -18
+19 -19
+20 -20
+21 -21
+22 -22
+23 -23
+24 -24
+25 -25
+26 -26
+27 -27
+28 -28
+29 -29
+30 -30
+31 -31
+32 -32
+33 -33
+34 -34
+35 -35
+36 -36
+37 -37
+38 -38
+39 -39
+40 -40
+41 -41
+42 -42
+43 -43
+44 -44
+45 -45
+46 -46
+47 -47
+48 -48
+49 -49
+50 -50
+51 -51
+52 -52
+53 -53
+54 -54
+55 -55
+56 -56
+57 -57
+58 -58
+59 -59
+60 -60
+61 -61
+62 -62
+63 -63
+64 -64
+65 -65
+66 -66
+67 -67
+68 -68
+69 -69
+70 -70
+71 -71
+72 -72
+73 -73
+74 -74
+75 -75
+76 -76
+77 -77
+78 -78
+79 -79
+80 -80
+81 -81
+82 -82
+83 -83
+84 -84
+85 -85
+86 -86
+87 -87
+88 -88
+89 -89
+90 -90
+91 -91
+92 -92
+93 -93
+94 -94
+95 -95
+96 -96
+97 -97
+98 -98
+99 -99
EOF
